data/lp_files/pEFS/67_0.lp
\ Model foo
\ LP format - for model browsing. Use MPS format to capture full model detail.
Minimize
  z
Subject To
 allocateEach[1]: x[1,1] + x[2,1] + x[3,1] + x[4,1] = 1
 allocateEach[2]: x[1,2] + x[2,2] + x[3,2] + x[4,2] = 1
 allocateEach[3]: x[1,3] + x[2,3] + x[3,3] + x[4,3] = 1
 allocateEach[4]: x[1,4] + x[2,4] + x[3,4] + x[4,4] = 1
 allocateEach[5]: x[1,5] + x[2,5] + x[3,5] + x[4,5] = 1
 allocateEach[6]: x[1,6] + x[2,6] + x[3,6] + x[4,6] = 1
 allocateEach[7]: x[1,7] + x[2,7] + x[3,7] + x[4,7] = 1
 allocateAllCash: cashProportion[1] + cashProportion[2] + cashProportion[3]
   + cashProportion[4] = 1
 findWorstP[1,2]: z + 0.0104318798247444 cashProportion[1]
   - 0.0104318798247444 cashProportion[2] + 0.1946797412893804 x[1,1]
   + 0.0823492593365325 x[1,2] + 0.1943250573753391 x[1,3]
   + 0.00484039223868141 x[1,4] + 0.1739411641977885 x[1,5]
   + 0.2025662424368872 x[1,6] + 0.1368662633006468 x[1,7]
   - 0.1946797412893804 x[2,1] - 0.0823492593365325 x[2,2]
   - 0.1943250573753391 x[2,3] - 0.00484039223868141 x[2,4]
   - 0.1739411641977885 x[2,5] - 0.2025662424368872 x[2,6]
   - 0.1368662633006468 x[2,7] >= 0
 findWorstP[1,3]: z + 0.0104318798247444 cashProportion[1]
   - 0.0104318798247444 cashProportion[3] + 0.1946797412893804 x[1,1]
   + 0.0823492593365325 x[1,2] + 0.1943250573753391 x[1,3]
   + 0.00484039223868141 x[1,4] + 0.1739411641977885 x[1,5]
   + 0.2025662424368872 x[1,6] + 0.1368662633006468 x[1,7]
   - 0.1946797412893804 x[3,1] - 0.0823492593365325 x[3,2]
   - 0.1943250573753391 x[3,3] - 0.00484039223868141 x[3,4]
   - 0.1739411641977885 x[3,5] - 0.2025662424368872 x[3,6]
   - 0.1368662633006468 x[3,7] >= 0
 findWorstP[1,4]: z + 0.0104318798247444 cashProportion[1]
   - 0.0104318798247444 cashProportion[4] + 0.1946797412893804 x[1,1]
   + 0.0823492593365325 x[1,2] + 0.1943250573753391 x[1,3]
   + 0.00484039223868141 x[1,4] + 0.1739411641977885 x[1,5]
   + 0.2025662424368872 x[1,6] + 0.1368662633006468 x[1,7]
   - 0.1946797412893804 x[4,1] - 0.0823492593365325 x[4,2]
   - 0.1943250573753391 x[4,3] - 0.00484039223868141 x[4,4]
   - 0.1739411641977885 x[4,5] - 0.2025662424368872 x[4,6]
   - 0.1368662633006468 x[4,7] >= 0
 findWorstP[2,1]: z - 0.0106297036438624 cashProportion[1]
   + 0.0106297036438624 cashProportion[2] - 0.1694799948977423 x[1,1]
   - 0.0660104596283856 x[1,2] - 0.1604447468004592 x[1,3]
   - 0.1574046515583145 x[1,4] - 0.1336791530252137 x[1,5]
   - 0.1028317530507249 x[1,6] - 0.1995195373952974 x[1,7]
   + 0.1694799948977423 x[2,1] + 0.0660104596283856 x[2,2]
   + 0.1604447468004592 x[2,3] + 0.1574046515583145 x[2,4]
   + 0.1336791530252137 x[2,5] + 0.1028317530507249 x[2,6]
   + 0.1995195373952974 x[2,7] >= 0
 findWorstP[2,3]: z + 0.0106297036438624 cashProportion[2]
   - 0.0106297036438624 cashProportion[3] + 0.1694799948977423 x[2,1]
   + 0.0660104596283856 x[2,2] + 0.1604447468004592 x[2,3]
   + 0.1574046515583145 x[2,4] + 0.1336791530252137 x[2,5]
   + 0.1028317530507249 x[2,6] + 0.1995195373952974 x[2,7]
   - 0.1694799948977423 x[3,1] - 0.0660104596283856 x[3,2]
   - 0.1604447468004592 x[3,3] - 0.1574046515583145 x[3,4]
   - 0.1336791530252137 x[3,5] - 0.1028317530507249 x[3,6]
   - 0.1995195373952974 x[3,7] >= 0
 findWorstP[2,4]: z + 0.0106297036438624 cashProportion[2]
   - 0.0106297036438624 cashProportion[4] + 0.1694799948977423 x[2,1]
   + 0.0660104596283856 x[2,2] + 0.1604447468004592 x[2,3]
   + 0.1574046515583145 x[2,4] + 0.1336791530252137 x[2,5]
   + 0.1028317530507249 x[2,6] + 0.1995195373952974 x[2,7]
   - 0.1694799948977423 x[4,1] - 0.0660104596283856 x[4,2]
   - 0.1604447468004592 x[4,3] - 0.1574046515583145 x[4,4]
   - 0.1336791530252137 x[4,5] - 0.1028317530507249 x[4,6]
   - 0.1995195373952974 x[4,7] >= 0
 findWorstP[3,1]: z - 0.025652865425068 cashProportion[1]
   + 0.025652865425068 cashProportion[3] - 0.295880149812734 x[1,1]
   - 0.0393001898312041 x[1,2] - 0.00595146477861577 x[1,3]
   - 0.3212764865835513 x[1,4] - 0.1266225437381355 x[1,5]
   - 0.0111333435944795 x[1,6] - 0.1741829562362116 x[1,7]
   + 0.295880149812734 x[3,1] + 0.0393001898312041 x[3,2]
   + 0.00595146477861577 x[3,3] + 0.3212764865835513 x[3,4]
   + 0.1266225437381355 x[3,5] + 0.0111333435944795 x[3,6]
   + 0.1741829562362116 x[3,7] >= 0
 findWorstP[3,2]: z - 0.025652865425068 cashProportion[2]
   + 0.025652865425068 cashProportion[3] - 0.295880149812734 x[2,1]
   - 0.0393001898312041 x[2,2] - 0.00595146477861577 x[2,3]
   - 0.3212764865835513 x[2,4] - 0.1266225437381355 x[2,5]
   - 0.0111333435944795 x[2,6] - 0.1741829562362116 x[2,7]
   + 0.295880149812734 x[3,1] + 0.0393001898312041 x[3,2]
   + 0.00595146477861577 x[3,3] + 0.3212764865835513 x[3,4]
   + 0.1266225437381355 x[3,5] + 0.0111333435944795 x[3,6]
   + 0.1741829562362116 x[3,7] >= 0
 findWorstP[3,4]: z + 0.025652865425068 cashProportion[3]
   - 0.025652865425068 cashProportion[4] + 0.295880149812734 x[3,1]
   + 0.0393001898312041 x[3,2] + 0.00595146477861577 x[3,3]
   + 0.3212764865835513 x[3,4] + 0.1266225437381355 x[3,5]
   + 0.0111333435944795 x[3,6] + 0.1741829562362116 x[3,7]
   - 0.295880149812734 x[4,1] - 0.0393001898312041 x[4,2]
   - 0.00595146477861577 x[4,3] - 0.3212764865835513 x[4,4]
   - 0.1266225437381355 x[4,5] - 0.0111333435944795 x[4,6]
   - 0.1741829562362116 x[4,7] >= 0
 findWorstP[4,1]: z - 0.0125542973359781 cashProportion[1]
   + 0.0125542973359781 cashProportion[4] - 0.0276696713284957 x[1,1]
   - 0.2438797800487107 x[1,2] - 0.1907751023175233 x[1,3]
   - 0.1159514901950938 x[1,4] - 0.1165540964672207 x[1,5]
   - 0.1910010796695709 x[1,6] - 0.1016144826374068 x[1,7]
   + 0.0276696713284957 x[4,1] + 0.2438797800487107 x[4,2]
   + 0.1907751023175233 x[4,3] + 0.1159514901950938 x[4,4]
   + 0.1165540964672207 x[4,5] + 0.1910010796695709 x[4,6]
   + 0.1016144826374068 x[4,7] >= 0
 findWorstP[4,2]: z - 0.0125542973359781 cashProportion[2]
   + 0.0125542973359781 cashProportion[4] - 0.0276696713284957 x[2,1]
   - 0.2438797800487107 x[2,2] - 0.1907751023175233 x[2,3]
   - 0.1159514901950938 x[2,4] - 0.1165540964672207 x[2,5]
   - 0.1910010796695709 x[2,6] - 0.1016144826374068 x[2,7]
   + 0.0276696713284957 x[4,1] + 0.2438797800487107 x[4,2]
   + 0.1907751023175233 x[4,3] + 0.1159514901950938 x[4,4]
   + 0.1165540964672207 x[4,5] + 0.1910010796695709 x[4,6]
   + 0.1016144826374068 x[4,7] >= 0
 findWorstP[4,3]: z - 0.0125542973359781 cashProportion[3]
   + 0.0125542973359781 cashProportion[4] - 0.0276696713284957 x[3,1]
   - 0.2438797800487107 x[3,2] - 0.1907751023175233 x[3,3]
   - 0.1159514901950938 x[3,4] - 0.1165540964672207 x[3,5]
   - 0.1910010796695709 x[3,6] - 0.1016144826374068 x[3,7]
   + 0.0276696713284957 x[4,1] + 0.2438797800487107 x[4,2]
   + 0.1907751023175233 x[4,3] + 0.1159514901950938 x[4,4]
   + 0.1165540964672207 x[4,5] + 0.1910010796695709 x[4,6]
   + 0.1016144826374068 x[4,7] >= 0
Bounds
 z <= 1
 -infinity <= cashProportion[1] <= 1
 -infinity <= cashProportion[2] <= 1
 -infinity <= cashProportion[3] <= 1
 -infinity <= cashProportion[4] <= 1
Binaries
 x[1,1] x[1,2] x[1,3] x[1,4] x[1,5] x[1,6] x[1,7] x[2,1] x[2,2] x[2,3]
 x[2,4] x[2,5] x[2,6] x[2,7] x[3,1] x[3,2] x[3,3] x[3,4] x[3,5] x[3,6]
 x[3,7] x[4,1] x[4,2] x[4,3] x[4,4] x[4,5] x[4,6] x[4,7]
End
