data/mps_files/q3/67_0.mps
NAME foo
ROWS
 N  OBJ
 E  allocateEach[1]
 E  allocateEach[2]
 E  allocateEach[3]
 E  allocateEach[4]
 E  allocateEach[5]
 E  allocateEach[6]
 E  allocateEach[7]
 E  allocateAllCash
 G  findWorstP[1,2]
 G  findWorstP[1,3]
 G  findWorstP[1,4]
 G  findWorstP[2,1]
 G  findWorstP[2,3]
 G  findWorstP[2,4]
 G  findWorstP[3,1]
 G  findWorstP[3,2]
 G  findWorstP[3,4]
 G  findWorstP[4,1]
 G  findWorstP[4,2]
 G  findWorstP[4,3]
COLUMNS
    z         OBJ       1
    z         findWorstP[1,2]  1
    z         findWorstP[1,3]  1
    z         findWorstP[1,4]  1
    z         findWorstP[2,1]  1
    z         findWorstP[2,3]  1
    z         findWorstP[2,4]  1
    z         findWorstP[3,1]  1
    z         findWorstP[3,2]  1
    z         findWorstP[3,4]  1
    z         findWorstP[4,1]  1
    z         findWorstP[4,2]  1
    z         findWorstP[4,3]  1
    cashProportion[1]  allocateAllCash  1
    cashProportion[1]  findWorstP[1,2]  1.0431879824744422e-02
    cashProportion[1]  findWorstP[1,3]  1.0431879824744422e-02
    cashProportion[1]  findWorstP[1,4]  1.0431879824744422e-02
    cashProportion[1]  findWorstP[2,1]  -1.0629703643862410e-02
    cashProportion[1]  findWorstP[3,1]  -2.5652865425067978e-02
    cashProportion[1]  findWorstP[4,1]  -1.2554297335978107e-02
    cashProportion[2]  allocateAllCash  1
    cashProportion[2]  findWorstP[1,2]  -1.0431879824744422e-02
    cashProportion[2]  findWorstP[2,1]  1.0629703643862410e-02
    cashProportion[2]  findWorstP[2,3]  1.0629703643862410e-02
    cashProportion[2]  findWorstP[2,4]  1.0629703643862410e-02
    cashProportion[2]  findWorstP[3,2]  -2.5652865425067978e-02
    cashProportion[2]  findWorstP[4,2]  -1.2554297335978107e-02
    cashProportion[3]  allocateAllCash  1
    cashProportion[3]  findWorstP[1,3]  -1.0431879824744422e-02
    cashProportion[3]  findWorstP[2,3]  -1.0629703643862410e-02
    cashProportion[3]  findWorstP[3,1]  2.5652865425067978e-02
    cashProportion[3]  findWorstP[3,2]  2.5652865425067978e-02
    cashProportion[3]  findWorstP[3,4]  2.5652865425067978e-02
    cashProportion[3]  findWorstP[4,3]  -1.2554297335978107e-02
    cashProportion[4]  allocateAllCash  1
    cashProportion[4]  findWorstP[1,4]  -1.0431879824744422e-02
    cashProportion[4]  findWorstP[2,4]  -1.0629703643862410e-02
    cashProportion[4]  findWorstP[3,4]  -2.5652865425067978e-02
    cashProportion[4]  findWorstP[4,1]  1.2554297335978107e-02
    cashProportion[4]  findWorstP[4,2]  1.2554297335978107e-02
    cashProportion[4]  findWorstP[4,3]  1.2554297335978107e-02
    MARKER    'MARKER'                 'INTORG'
    x[1,1]    allocateEach[1]  1
    x[1,1]    findWorstP[1,2]  1.9467974128938040e-01
    x[1,1]    findWorstP[1,3]  1.9467974128938040e-01
    x[1,1]    findWorstP[1,4]  1.9467974128938040e-01
    x[1,1]    findWorstP[2,1]  -1.6947999489774226e-01
    x[1,1]    findWorstP[3,1]  -2.9588014981273403e-01
    x[1,1]    findWorstP[4,1]  -2.7669671328495748e-02
    x[1,2]    allocateEach[2]  1
    x[1,2]    findWorstP[1,2]  8.2349259336532463e-02
    x[1,2]    findWorstP[1,3]  8.2349259336532463e-02
    x[1,2]    findWorstP[1,4]  8.2349259336532463e-02
    x[1,2]    findWorstP[2,1]  -6.6010459628385559e-02
    x[1,2]    findWorstP[3,1]  -3.9300189831204140e-02
    x[1,2]    findWorstP[4,1]  -2.4387978004871072e-01
    x[1,3]    allocateEach[3]  1
    x[1,3]    findWorstP[1,2]  1.9432505737533906e-01
    x[1,3]    findWorstP[1,3]  1.9432505737533906e-01
    x[1,3]    findWorstP[1,4]  1.9432505737533906e-01
    x[1,3]    findWorstP[2,1]  -1.6044474680045923e-01
    x[1,3]    findWorstP[3,1]  -0.00595146477861577
    x[1,3]    findWorstP[4,1]  -1.9077510231752332e-01
    x[1,4]    allocateEach[4]  1
    x[1,4]    findWorstP[1,2]  4.8403922386814112e-03
    x[1,4]    findWorstP[1,3]  4.8403922386814112e-03
    x[1,4]    findWorstP[1,4]  4.8403922386814112e-03
    x[1,4]    findWorstP[2,1]  -1.5740465155831454e-01
    x[1,4]    findWorstP[3,1]  -3.2127648658355135e-01
    x[1,4]    findWorstP[4,1]  -1.1595149019509379e-01
    x[1,5]    allocateEach[5]  1
    x[1,5]    findWorstP[1,2]  1.7394116419778846e-01
    x[1,5]    findWorstP[1,3]  1.7394116419778846e-01
    x[1,5]    findWorstP[1,4]  1.7394116419778846e-01
    x[1,5]    findWorstP[2,1]  -1.3367915302521366e-01
    x[1,5]    findWorstP[3,1]  -1.2662254373813553e-01
    x[1,5]    findWorstP[4,1]  -1.1655409646722074e-01
    x[1,6]    allocateEach[6]  1
    x[1,6]    findWorstP[1,2]  2.0256624243688717e-01
    x[1,6]    findWorstP[1,3]  2.0256624243688717e-01
    x[1,6]    findWorstP[1,4]  2.0256624243688717e-01
    x[1,6]    findWorstP[2,1]  -1.0283175305072495e-01
    x[1,6]    findWorstP[3,1]  -1.1133343594479502e-02
    x[1,6]    findWorstP[4,1]  -1.9100107966957092e-01
    x[1,7]    allocateEach[7]  1
    x[1,7]    findWorstP[1,2]  1.3686626330064680e-01
    x[1,7]    findWorstP[1,3]  1.3686626330064680e-01
    x[1,7]    findWorstP[1,4]  1.3686626330064680e-01
    x[1,7]    findWorstP[2,1]  -1.9951953739529743e-01
    x[1,7]    findWorstP[3,1]  -1.7418295623621158e-01
    x[1,7]    findWorstP[4,1]  -1.0161448263740680e-01
    x[2,1]    allocateEach[1]  1
    x[2,1]    findWorstP[1,2]  -1.9467974128938040e-01
    x[2,1]    findWorstP[2,1]  1.6947999489774226e-01
    x[2,1]    findWorstP[2,3]  1.6947999489774226e-01
    x[2,1]    findWorstP[2,4]  1.6947999489774226e-01
    x[2,1]    findWorstP[3,2]  -2.9588014981273403e-01
    x[2,1]    findWorstP[4,2]  -2.7669671328495748e-02
    x[2,2]    allocateEach[2]  1
    x[2,2]    findWorstP[1,2]  -8.2349259336532463e-02
    x[2,2]    findWorstP[2,1]  6.6010459628385559e-02
    x[2,2]    findWorstP[2,3]  6.6010459628385559e-02
    x[2,2]    findWorstP[2,4]  6.6010459628385559e-02
    x[2,2]    findWorstP[3,2]  -3.9300189831204140e-02
    x[2,2]    findWorstP[4,2]  -2.4387978004871072e-01
    x[2,3]    allocateEach[3]  1
    x[2,3]    findWorstP[1,2]  -1.9432505737533906e-01
    x[2,3]    findWorstP[2,1]  1.6044474680045923e-01
    x[2,3]    findWorstP[2,3]  1.6044474680045923e-01
    x[2,3]    findWorstP[2,4]  1.6044474680045923e-01
    x[2,3]    findWorstP[3,2]  -0.00595146477861577
    x[2,3]    findWorstP[4,2]  -1.9077510231752332e-01
    x[2,4]    allocateEach[4]  1
    x[2,4]    findWorstP[1,2]  -4.8403922386814112e-03
    x[2,4]    findWorstP[2,1]  1.5740465155831454e-01
    x[2,4]    findWorstP[2,3]  1.5740465155831454e-01
    x[2,4]    findWorstP[2,4]  1.5740465155831454e-01
    x[2,4]    findWorstP[3,2]  -3.2127648658355135e-01
    x[2,4]    findWorstP[4,2]  -1.1595149019509379e-01
    x[2,5]    allocateEach[5]  1
    x[2,5]    findWorstP[1,2]  -1.7394116419778846e-01
    x[2,5]    findWorstP[2,1]  1.3367915302521366e-01
    x[2,5]    findWorstP[2,3]  1.3367915302521366e-01
    x[2,5]    findWorstP[2,4]  1.3367915302521366e-01
    x[2,5]    findWorstP[3,2]  -1.2662254373813553e-01
    x[2,5]    findWorstP[4,2]  -1.1655409646722074e-01
    x[2,6]    allocateEach[6]  1
    x[2,6]    findWorstP[1,2]  -2.0256624243688717e-01
    x[2,6]    findWorstP[2,1]  1.0283175305072495e-01
    x[2,6]    findWorstP[2,3]  1.0283175305072495e-01
    x[2,6]    findWorstP[2,4]  1.0283175305072495e-01
    x[2,6]    findWorstP[3,2]  -1.1133343594479502e-02
    x[2,6]    findWorstP[4,2]  -1.9100107966957092e-01
    x[2,7]    allocateEach[7]  1
    x[2,7]    findWorstP[1,2]  -1.3686626330064680e-01
    x[2,7]    findWorstP[2,1]  1.9951953739529743e-01
    x[2,7]    findWorstP[2,3]  1.9951953739529743e-01
    x[2,7]    findWorstP[2,4]  1.9951953739529743e-01
    x[2,7]    findWorstP[3,2]  -1.7418295623621158e-01
    x[2,7]    findWorstP[4,2]  -1.0161448263740680e-01
    x[3,1]    allocateEach[1]  1
    x[3,1]    findWorstP[1,3]  -1.9467974128938040e-01
    x[3,1]    findWorstP[2,3]  -1.6947999489774226e-01
    x[3,1]    findWorstP[3,1]  2.9588014981273403e-01
    x[3,1]    findWorstP[3,2]  2.9588014981273403e-01
    x[3,1]    findWorstP[3,4]  2.9588014981273403e-01
    x[3,1]    findWorstP[4,3]  -2.7669671328495748e-02
    x[3,2]    allocateEach[2]  1
    x[3,2]    findWorstP[1,3]  -8.2349259336532463e-02
    x[3,2]    findWorstP[2,3]  -6.6010459628385559e-02
    x[3,2]    findWorstP[3,1]  3.9300189831204140e-02
    x[3,2]    findWorstP[3,2]  3.9300189831204140e-02
    x[3,2]    findWorstP[3,4]  3.9300189831204140e-02
    x[3,2]    findWorstP[4,3]  -2.4387978004871072e-01
    x[3,3]    allocateEach[3]  1
    x[3,3]    findWorstP[1,3]  -1.9432505737533906e-01
    x[3,3]    findWorstP[2,3]  -1.6044474680045923e-01
    x[3,3]    findWorstP[3,1]  0.00595146477861577
    x[3,3]    findWorstP[3,2]  0.00595146477861577
    x[3,3]    findWorstP[3,4]  0.00595146477861577
    x[3,3]    findWorstP[4,3]  -1.9077510231752332e-01
    x[3,4]    allocateEach[4]  1
    x[3,4]    findWorstP[1,3]  -4.8403922386814112e-03
    x[3,4]    findWorstP[2,3]  -1.5740465155831454e-01
    x[3,4]    findWorstP[3,1]  3.2127648658355135e-01
    x[3,4]    findWorstP[3,2]  3.2127648658355135e-01
    x[3,4]    findWorstP[3,4]  3.2127648658355135e-01
    x[3,4]    findWorstP[4,3]  -1.1595149019509379e-01
    x[3,5]    allocateEach[5]  1
    x[3,5]    findWorstP[1,3]  -1.7394116419778846e-01
    x[3,5]    findWorstP[2,3]  -1.3367915302521366e-01
    x[3,5]    findWorstP[3,1]  1.2662254373813553e-01
    x[3,5]    findWorstP[3,2]  1.2662254373813553e-01
    x[3,5]    findWorstP[3,4]  1.2662254373813553e-01
    x[3,5]    findWorstP[4,3]  -1.1655409646722074e-01
    x[3,6]    allocateEach[6]  1
    x[3,6]    findWorstP[1,3]  -2.0256624243688717e-01
    x[3,6]    findWorstP[2,3]  -1.0283175305072495e-01
    x[3,6]    findWorstP[3,1]  1.1133343594479502e-02
    x[3,6]    findWorstP[3,2]  1.1133343594479502e-02
    x[3,6]    findWorstP[3,4]  1.1133343594479502e-02
    x[3,6]    findWorstP[4,3]  -1.9100107966957092e-01
    x[3,7]    allocateEach[7]  1
    x[3,7]    findWorstP[1,3]  -1.3686626330064680e-01
    x[3,7]    findWorstP[2,3]  -1.9951953739529743e-01
    x[3,7]    findWorstP[3,1]  1.7418295623621158e-01
    x[3,7]    findWorstP[3,2]  1.7418295623621158e-01
    x[3,7]    findWorstP[3,4]  1.7418295623621158e-01
    x[3,7]    findWorstP[4,3]  -1.0161448263740680e-01
    x[4,1]    allocateEach[1]  1
    x[4,1]    findWorstP[1,4]  -1.9467974128938040e-01
    x[4,1]    findWorstP[2,4]  -1.6947999489774226e-01
    x[4,1]    findWorstP[3,4]  -2.9588014981273403e-01
    x[4,1]    findWorstP[4,1]  2.7669671328495748e-02
    x[4,1]    findWorstP[4,2]  2.7669671328495748e-02
    x[4,1]    findWorstP[4,3]  2.7669671328495748e-02
    x[4,2]    allocateEach[2]  1
    x[4,2]    findWorstP[1,4]  -8.2349259336532463e-02
    x[4,2]    findWorstP[2,4]  -6.6010459628385559e-02
    x[4,2]    findWorstP[3,4]  -3.9300189831204140e-02
    x[4,2]    findWorstP[4,1]  2.4387978004871072e-01
    x[4,2]    findWorstP[4,2]  2.4387978004871072e-01
    x[4,2]    findWorstP[4,3]  2.4387978004871072e-01
    x[4,3]    allocateEach[3]  1
    x[4,3]    findWorstP[1,4]  -1.9432505737533906e-01
    x[4,3]    findWorstP[2,4]  -1.6044474680045923e-01
    x[4,3]    findWorstP[3,4]  -0.00595146477861577
    x[4,3]    findWorstP[4,1]  1.9077510231752332e-01
    x[4,3]    findWorstP[4,2]  1.9077510231752332e-01
    x[4,3]    findWorstP[4,3]  1.9077510231752332e-01
    x[4,4]    allocateEach[4]  1
    x[4,4]    findWorstP[1,4]  -4.8403922386814112e-03
    x[4,4]    findWorstP[2,4]  -1.5740465155831454e-01
    x[4,4]    findWorstP[3,4]  -3.2127648658355135e-01
    x[4,4]    findWorstP[4,1]  1.1595149019509379e-01
    x[4,4]    findWorstP[4,2]  1.1595149019509379e-01
    x[4,4]    findWorstP[4,3]  1.1595149019509379e-01
    x[4,5]    allocateEach[5]  1
    x[4,5]    findWorstP[1,4]  -1.7394116419778846e-01
    x[4,5]    findWorstP[2,4]  -1.3367915302521366e-01
    x[4,5]    findWorstP[3,4]  -1.2662254373813553e-01
    x[4,5]    findWorstP[4,1]  1.1655409646722074e-01
    x[4,5]    findWorstP[4,2]  1.1655409646722074e-01
    x[4,5]    findWorstP[4,3]  1.1655409646722074e-01
    x[4,6]    allocateEach[6]  1
    x[4,6]    findWorstP[1,4]  -2.0256624243688717e-01
    x[4,6]    findWorstP[2,4]  -1.0283175305072495e-01
    x[4,6]    findWorstP[3,4]  -1.1133343594479502e-02
    x[4,6]    findWorstP[4,1]  1.9100107966957092e-01
    x[4,6]    findWorstP[4,2]  1.9100107966957092e-01
    x[4,6]    findWorstP[4,3]  1.9100107966957092e-01
    x[4,7]    allocateEach[7]  1
    x[4,7]    findWorstP[1,4]  -1.3686626330064680e-01
    x[4,7]    findWorstP[2,4]  -1.9951953739529743e-01
    x[4,7]    findWorstP[3,4]  -1.7418295623621158e-01
    x[4,7]    findWorstP[4,1]  1.0161448263740680e-01
    x[4,7]    findWorstP[4,2]  1.0161448263740680e-01
    x[4,7]    findWorstP[4,3]  1.0161448263740680e-01
    MARKER    'MARKER'                 'INTEND'
RHS
    RHS1      allocateEach[1]  1
    RHS1      allocateEach[2]  1
    RHS1      allocateEach[3]  1
    RHS1      allocateEach[4]  1
    RHS1      allocateEach[5]  1
    RHS1      allocateEach[6]  1
    RHS1      allocateEach[7]  1
    RHS1      allocateAllCash  1
BOUNDS
 UP BND1      z         1
 MI BND1      cashProportion[1]
 UP BND1      cashProportion[1]  1
 MI BND1      cashProportion[2]
 UP BND1      cashProportion[2]  1
 MI BND1      cashProportion[3]
 UP BND1      cashProportion[3]  1
 MI BND1      cashProportion[4]
 UP BND1      cashProportion[4]  1
 BV BND1      x[1,1]  
 BV BND1      x[1,2]  
 BV BND1      x[1,3]  
 BV BND1      x[1,4]  
 BV BND1      x[1,5]  
 BV BND1      x[1,6]  
 BV BND1      x[1,7]  
 BV BND1      x[2,1]  
 BV BND1      x[2,2]  
 BV BND1      x[2,3]  
 BV BND1      x[2,4]  
 BV BND1      x[2,5]  
 BV BND1      x[2,6]  
 BV BND1      x[2,7]  
 BV BND1      x[3,1]  
 BV BND1      x[3,2]  
 BV BND1      x[3,3]  
 BV BND1      x[3,4]  
 BV BND1      x[3,5]  
 BV BND1      x[3,6]  
 BV BND1      x[3,7]  
 BV BND1      x[4,1]  
 BV BND1      x[4,2]  
 BV BND1      x[4,3]  
 BV BND1      x[4,4]  
 BV BND1      x[4,5]  
 BV BND1      x[4,6]  
 BV BND1      x[4,7]  
ENDATA
